NAME : N60ft309.dat.12428.tour
COMMENT : Length = 12428
COMMENT : Found by LKH [Keld Helsgaun] Sat Nov 11 16:42:01 2017
TYPE : TOUR
DIMENSION : 60
TOUR_SECTION
1
11
46
30
9
42
29
43
18
49
31
5
4
16
3
40
21
57
34
32
37
14
54
47
23
6
8
20
41
38
51
2
27
10
58
7
56
22
59
60
19
50
15
35
26
24
28
25
45
33
52
12
36
17
44
13
39
55
53
48
-1
EOF
